# Solution for model GasLib-40
# Objective value = 1.0918442182666077e+01
loadshed[innode_1] 0
loadshed[innode_2] 0
loadshed[innode_3] 0
loadshed[innode_4] 0
loadshed[innode_5] 0
loadshed[innode_6] 0
loadshed[innode_7] 0
loadshed[innode_8] 0
loadshed[source_1] -0.313486450620138
loadshed[source_2] 9.4290480691641920e-02
loadshed[source_3] 2.8826057235769564e-01
loadshed[sink_1] 0
loadshed[sink_2] 0
loadshed[sink_3] 0
loadshed[sink_4] 0
loadshed[sink_5] 0
loadshed[sink_6] 0
loadshed[sink_7] 0
loadshed[sink_8] 0
loadshed[sink_9] 0
loadshed[sink_10] 0
loadshed[sink_11] 0
loadshed[sink_12] 6.6762449015028236e-01
loadshed[sink_13] 0
loadshed[sink_14] 0
loadshed[sink_15] 0
loadshed[sink_16] 0
loadshed[sink_17] 0
loadshed[sink_18] 0
loadshed[sink_19] 0
loadshed[sink_20] 0
loadshed[sink_21] 0
loadshed[sink_22] 0
loadshed[sink_23] 0
loadshed[sink_24] 0
loadshed[sink_25] 0
loadshed[sink_26] 0
loadshed[sink_27] 0
loadshed[sink_28] 0
loadshed[sink_29] 0
flow[source_1,sink_3] 207.649437835885
flow[innode_1,sink_16] 1.6354166666666970e+01
flow[innode_6,sink_13] 1.9600828452985477e+00
flow[sink_13,sink_14] -1.4394083821368120e+01
flow[sink_14,sink_10] -3.0748250488034728e+01
flow[sink_25,sink_26] 1.6873395974205721e+02
flow[sink_26,sink_9] 1.2759689403464219e+02
flow[sink_9,sink_18] 1.1124272736797552e+02
flow[sink_26,sink_4] 2.4782899040748347e+01
flow[sink_4,sink_20] 8.42873237408168
flow[sink_18,sink_6] 9.4888560701308847e+01
flow[sink_25,innode_8] -1.7494110450254865e+02
flow[sink_6,sink_7] 4.5826060701308506e+01
flow[sink_6,sink_22] 3.2708333333333641e+01
flow[sink_7,sink_24] 3.8144057817333930e+01
flow[sink_22,sink_1] 1.6354166666666970e+01
flow[sink_24,sink_21] 2.1789891150667259e+01
flow[sink_21,sink_12] 5.4357244840005920e+00
flow[sink_7,sink_5] -8.6721637826913991e+00
flow[sink_5,sink_17] -2.5026330449358170e+01
flow[sink_17,sink_4] 0
flow[sink_17,sink_8] -4.1380497116024713e+01
flow[sink_3,sink_23] 16.3541666666697
flow[sink_8,sink_20] -5.7734663782691385e+01
flow[sink_25,sink_20] 6.5660098075276409e+01
flow[sink_25,sink_15] -7.7767202826750534e+01
flow[sink_15,sink_29] -1.1047553616010146e+02
flow[sink_29,sink_28] 1.6354166666667879e+01
flow[sink_29,sink_2] 0
flow[sink_2,sink_15] -1.6354166666684250e+01
flow[sink_29,innode_7] -1.4318386949343591e+02
flow[innode_4,sink_19] 4.3340003300936843e+01
flow[sink_19,innode_3] 0
flow[innode_4,innode_5] 6.9179080520431611e+01
flow[sink_27,innode_5] -6.9179080520431611e+01
flow[sink_27,sink_19] 5.2824913853764947e+01
flow[sink_10,sink_11] 3.2708333333333641e+01
flow[sink_10,innode_2] -7.9810750488035310e+01
flow[sink_10,innode_3] 0
flow[innode_6,sink_25] -1.9600828452985477e+00
flow[sink_11,innode_1] 1.6354166666666970e+01
flow[sink_19,innode_2] 7.9810750488035310e+01
flow[source_3,innode_4] 1.1251908382136845e+02
flow[source_2,innode_7] 1.4318386949343591e+02
flow[sink_3,innode_8] 1.7494110450254865e+02
pressure[innode_1] 7.4887406935229748e+01
pressure[innode_2] 7.9257436035321234e+01
pressure[innode_3] 7.9257436035321234e+01
pressure[innode_4] 81.01325
pressure[innode_5] 8.0965664980593829e+01
pressure[innode_6] 7.3569805339844848e+01
pressure[innode_7] 81.01325
pressure[innode_8] 80.3191572542751
pressure[source_1] 81.01325
pressure[source_2] 81.01325
pressure[source_3] 81.01325
pressure[sink_1] 45.3889900826712
pressure[sink_2] 7.3893659301848587e+01
pressure[sink_3] 80.3191572542751
pressure[sink_4] 5.8535009722124258e+01
pressure[sink_5] 5.0467670213226185e+01
pressure[sink_6] 4.7490067693058570e+01
pressure[sink_7] 4.6860985112425787e+01
pressure[sink_8] 5.3893344596266722e+01
pressure[sink_9] 5.4048968220679512e+01
pressure[sink_10] 75.0391082428333
pressure[sink_11] 7.4887406935229748e+01
pressure[sink_12] 1.0132500000000002e+00
pressure[sink_13] 7.3558999730678991e+01
pressure[sink_14] 7.3584759169782160e+01
pressure[sink_15] 7.3947052051615032e+01
pressure[sink_16] 7.3865757100412068e+01
pressure[sink_17] 5.2331950936191163e+01
pressure[sink_18] 5.0023874784156618e+01
pressure[sink_19] 7.9257436035321234e+01
pressure[sink_20] 5.7916638723695051e+01
pressure[sink_21] 2.9475782697672406e+00
pressure[sink_22] 4.6452759225026206e+01
pressure[sink_23] 8.0154439242615311e+01
pressure[sink_24] 3.1888810690375089e+00
pressure[sink_25] 7.3569805339844848e+01
pressure[sink_26] 6.1685971647171087e+01
pressure[sink_27] 8.0391606441470344e+01
pressure[sink_28] 7.6888360139597708e+01
pressure[sink_29] 7.7183642413214884e+01
interdiction[source_1,sink_3] 0
interdiction[innode_1,sink_16] 0
interdiction[innode_6,sink_13] 0
interdiction[sink_13,sink_14] 0
interdiction[sink_14,sink_10] 0
interdiction[sink_25,sink_26] 0
interdiction[sink_26,sink_9] 0
interdiction[sink_9,sink_18] 0
interdiction[sink_26,sink_4] 0
interdiction[sink_4,sink_20] 0
interdiction[sink_18,sink_6] 0
interdiction[sink_25,innode_8] 0
interdiction[sink_6,sink_7] 0
interdiction[sink_6,sink_22] 0
interdiction[sink_7,sink_24] 0
interdiction[sink_22,sink_1] 0
interdiction[sink_24,sink_21] 0
interdiction[sink_21,sink_12] 0
interdiction[sink_7,sink_5] 0
interdiction[sink_5,sink_17] 0
interdiction[sink_17,sink_4] 1
interdiction[sink_17,sink_8] 0
interdiction[sink_3,sink_23] 0
interdiction[sink_8,sink_20] 0
interdiction[sink_25,sink_20] 0
interdiction[sink_25,sink_15] 0
interdiction[sink_15,sink_29] 0
interdiction[sink_29,sink_28] 0
interdiction[sink_29,sink_2] 1
interdiction[sink_2,sink_15] 0
interdiction[sink_29,innode_7] 0
interdiction[innode_4,sink_19] 0
interdiction[sink_19,innode_3] 0
interdiction[innode_4,innode_5] 0
interdiction[sink_27,innode_5] 0
interdiction[sink_27,sink_19] 0
interdiction[sink_10,sink_11] 0
interdiction[sink_10,innode_2] 0
interdiction[sink_10,innode_3] 1
interdiction[innode_6,sink_25] 0
interdiction[sink_11,innode_1] 0
interdiction[sink_19,innode_2] 0
interdiction[source_3,innode_4] 0
interdiction[source_2,innode_7] 0
interdiction[sink_3,innode_8] 0
WCcheckFlow[source_1,sink_3] 39
WCcheckFlow[innode_1,sink_16] 1
WCcheckFlow[innode_6,sink_13] 13
WCcheckFlow[sink_13,sink_14] 12
WCcheckFlow[sink_14,sink_10] 11
WCcheckFlow[sink_25,sink_26] 15
WCcheckFlow[sink_26,sink_9] 12
WCcheckFlow[sink_9,sink_18] 11
WCcheckFlow[sink_26,sink_4] 2
WCcheckFlow[sink_4,sink_20] 1
WCcheckFlow[sink_18,sink_6] 10
WCcheckFlow[sink_25,innode_8] -36
WCcheckFlow[sink_6,sink_7] 7
WCcheckFlow[sink_6,sink_22] 2
WCcheckFlow[sink_7,sink_24] 3
WCcheckFlow[sink_22,sink_1] 1
WCcheckFlow[sink_24,sink_21] 2
WCcheckFlow[sink_21,sink_12] 1
WCcheckFlow[sink_7,sink_5] 3
WCcheckFlow[sink_5,sink_17] 2
WCcheckFlow[sink_17,sink_4] 0
WCcheckFlow[sink_17,sink_8] 1
WCcheckFlow[sink_3,sink_23] 1
WCcheckFlow[sink_8,sink_20] 0
WCcheckFlow[sink_25,sink_20] 0
WCcheckFlow[sink_25,sink_15] 6
WCcheckFlow[sink_15,sink_29] 4
WCcheckFlow[sink_29,sink_28] 1
WCcheckFlow[sink_29,sink_2] 0
WCcheckFlow[sink_2,sink_15] -1
WCcheckFlow[sink_29,innode_7] 2
WCcheckFlow[innode_4,sink_19] -4
WCcheckFlow[sink_19,innode_3] 1
WCcheckFlow[innode_4,innode_5] 2
WCcheckFlow[sink_27,innode_5] -1
WCcheckFlow[sink_27,sink_19] 0
WCcheckFlow[sink_10,sink_11] 3
WCcheckFlow[sink_10,innode_2] 7
WCcheckFlow[sink_10,innode_3] 0
WCcheckFlow[innode_6,sink_25] -14
WCcheckFlow[sink_11,innode_1] 2
WCcheckFlow[sink_19,innode_2] -6
WCcheckFlow[source_3,innode_4] -1
WCcheckFlow[source_2,innode_7] -1
WCcheckFlow[sink_3,innode_8] 37
